\ Model MILP-Hub and Spoke Network
\ LP format - for model browsing. Use MPS format to capture full model detail.
Maximize
  233.76 x(0,1) - 26298 z(0,1) + 233.76 w(0,1) + 245.76 x(0,2)
   - 27648 z(0,2) + 245.76 w(0,2) + 156 x(0,3) - 17550 z(0,3) + 156 w(0,3)
   + 727.2 x(0,4) - 81810 z(0,4) + 727.2 w(0,4) + 622.08 x(0,5)
   - 69984 z(0,5) + 622.08 w(0,5) + 233.76 x(1,0) - 26298 z(1,0)
   + 233.76 w(1,0) + 53.76 x(1,2) - 6048 z(1,2) + 53.76 w(1,2)
   + 155.68 x(1,3) - 17514 z(1,3) + 155.68 w(1,3) + 926.4 x(1,4)
   - 104220 z(1,4) + 926.4 w(1,4) + 828.32 x(1,5) - 93186 z(1,5)
   + 828.32 w(1,5) + 245.76 x(2,0) - 27648 z(2,0) + 245.76 w(2,0)
   + 53.76 x(2,1) - 6048 z(2,1) + 53.76 w(2,1) + 199.04 x(2,3)
   - 22392 z(2,3) + 199.04 w(2,3) + 907.36 x(2,4) - 102078 z(2,4)
   + 907.36 w(2,4) + 812.96 x(2,5) - 91458 z(2,5) + 812.96 w(2,5)
   + 156 x(3,0) - 17550 z(3,0) + 156 w(3,0) + 155.68 x(3,1) - 17514 z(3,1)
   + 155.68 w(3,1) + 199.04 x(3,2) - 22392 z(3,2) + 199.04 w(3,2)
   + 882.4 x(3,4) - 99270 z(3,4) + 882.4 w(3,4) + 776.16 x(3,5)
   - 87318 z(3,5) + 776.16 w(3,5) + 727.2 x(4,0) - 81810 z(4,0)
   + 727.2 w(4,0) + 926.4 x(4,1) - 104220 z(4,1) + 926.4 w(4,1)
   + 907.36 x(4,2) - 102078 z(4,2) + 907.36 w(4,2) + 882.4 x(4,3)
   - 99270 z(4,3) + 882.4 w(4,3) + 110.56 x(4,5) - 12438 z(4,5)
   + 110.56 w(4,5) + 622.08 x(5,0) - 69984 z(5,0) + 622.08 w(5,0)
   + 828.32 x(5,1) - 93186 z(5,1) + 828.32 w(5,1) + 812.96 x(5,2)
   - 91458 z(5,2) + 812.96 w(5,2) + 776.16 x(5,3) - 87318 z(5,3)
   + 776.16 w(5,3) + 110.56 x(5,4) - 12438 z(5,4) + 110.56 w(5,4)
Subject To
 C1(0,0): x(0,0) + w(0,0) <= 0
 C1(0,1): x(0,1) + w(0,1) <= 2509
 C1(0,2): x(0,2) + w(0,2) <= 1080
 C1(0,3): x(0,3) + w(0,3) <= 558
 C1(0,4): x(0,4) + w(0,4) <= 770
 C1(0,5): x(0,5) + w(0,5) <= 713
 C1(1,0): x(1,0) + w(1,0) <= 2509
 C1(1,1): x(1,1) + w(1,1) <= 0
 C1(1,2): x(1,2) + w(1,2) <= 216
 C1(1,3): x(1,3) + w(1,3) <= 112
 C1(1,4): x(1,4) + w(1,4) <= 360
 C1(1,5): x(1,5) + w(1,5) <= 333
 C1(2,0): x(2,0) + w(2,0) <= 1080
 C1(2,1): x(2,1) + w(2,1) <= 216
 C1(2,2): x(2,2) + w(2,2) <= 0
 C1(2,3): x(2,3) + w(2,3) <= 78
 C1(2,4): x(2,4) + w(2,4) <= 46
 C1(2,5): x(2,5) + w(2,5) <= 43
 C1(3,0): x(3,0) + w(3,0) <= 558
 C1(3,1): x(3,1) + w(3,1) <= 112
 C1(3,2): x(3,2) + w(3,2) <= 78
 C1(3,3): x(3,3) + w(3,3) <= 0
 C1(3,4): x(3,4) + w(3,4) <= 32
 C1(3,5): x(3,5) + w(3,5) <= 30
 C1(4,0): x(4,0) + w(4,0) <= 770
 C1(4,1): x(4,1) + w(4,1) <= 360
 C1(4,2): x(4,2) + w(4,2) <= 46
 C1(4,3): x(4,3) + w(4,3) <= 32
 C1(4,4): x(4,4) + w(4,4) <= 0
 C1(4,5): x(4,5) + w(4,5) <= 70
 C1(5,0): x(5,0) + w(5,0) <= 713
 C1(5,1): x(5,1) + w(5,1) <= 333
 C1(5,2): x(5,2) + w(5,2) <= 43
 C1(5,3): x(5,3) + w(5,3) <= 30
 C1(5,4): x(5,4) + w(5,4) <= 70
 C1(5,5): x(5,5) + w(5,5) <= 0
 C1Star(0,0): w(0,0) <= 0
 C1Star(0,1): w(0,1) <= 0
 C1Star(0,2): w(0,2) <= 0
 C1Star(0,3): w(0,3) <= 0
 C1Star(0,4): w(0,4) <= 0
 C1Star(0,5): w(0,5) <= 0
 C1Star(1,0): w(1,0) <= 0
 C1Star(1,1): w(1,1) <= 0
 C1Star(1,2): w(1,2) <= 216
 C1Star(1,3): w(1,3) <= 112
 C1Star(1,4): w(1,4) <= 360
 C1Star(1,5): w(1,5) <= 333
 C1Star(2,0): w(2,0) <= 0
 C1Star(2,1): w(2,1) <= 216
 C1Star(2,2): w(2,2) <= 0
 C1Star(2,3): w(2,3) <= 78
 C1Star(2,4): w(2,4) <= 46
 C1Star(2,5): w(2,5) <= 43
 C1Star(3,0): w(3,0) <= 0
 C1Star(3,1): w(3,1) <= 112
 C1Star(3,2): w(3,2) <= 78
 C1Star(3,3): w(3,3) <= 0
 C1Star(3,4): w(3,4) <= 32
 C1Star(3,5): w(3,5) <= 30
 C1Star(4,0): w(4,0) <= 0
 C1Star(4,1): w(4,1) <= 360
 C1Star(4,2): w(4,2) <= 46
 C1Star(4,3): w(4,3) <= 32
 C1Star(4,4): w(4,4) <= 0
 C1Star(4,5): w(4,5) <= 70
 C1Star(5,0): w(5,0) <= 0
 C1Star(5,1): w(5,1) <= 333
 C1Star(5,2): w(5,2) <= 43
 C1Star(5,3): w(5,3) <= 30
 C1Star(5,4): w(5,4) <= 70
 C1Star(5,5): w(5,5) <= 0
 C2(0,0): x(0,0) - 120 z(0,0) + 2 w(0,0) + w(0,1) + w(0,2) + w(0,3)
   + w(0,4) + w(0,5) + w(1,0) + w(2,0) + w(3,0) + w(4,0) + w(5,0) <= 0
 C2(0,1): x(0,1) - 120 z(0,1) + w(0,1) + w(1,1) + w(2,1) + w(3,1) + w(4,1)
   + w(5,1) <= 0
 C2(0,2): x(0,2) - 120 z(0,2) + w(0,2) + w(1,2) + w(2,2) + w(3,2) + w(4,2)
   + w(5,2) <= 0
 C2(0,3): x(0,3) - 120 z(0,3) + w(0,3) + w(1,3) + w(2,3) + w(3,3) + w(4,3)
   + w(5,3) <= 0
 C2(0,4): x(0,4) - 120 z(0,4) + w(0,4) + w(1,4) + w(2,4) + w(3,4) + w(4,4)
   + w(5,4) <= 0
 C2(0,5): x(0,5) - 120 z(0,5) + w(0,5) + w(1,5) + w(2,5) + w(3,5) + w(4,5)
   + w(5,5) <= 0
 C2(1,0): x(1,0) - 120 z(1,0) + w(1,0) + w(1,1) + w(1,2) + w(1,3) + w(1,4)
   + w(1,5) <= 0
 C2(1,1): x(1,1) - 120 z(1,1) <= 0
 C2(1,2): x(1,2) - 120 z(1,2) <= 0
 C2(1,3): x(1,3) - 120 z(1,3) <= 0
 C2(1,4): x(1,4) - 120 z(1,4) <= 0
 C2(1,5): x(1,5) - 120 z(1,5) <= 0
 C2(2,0): x(2,0) - 120 z(2,0) + w(2,0) + w(2,1) + w(2,2) + w(2,3) + w(2,4)
   + w(2,5) <= 0
 C2(2,1): x(2,1) - 120 z(2,1) <= 0
 C2(2,2): x(2,2) - 120 z(2,2) <= 0
 C2(2,3): x(2,3) - 120 z(2,3) <= 0
 C2(2,4): x(2,4) - 120 z(2,4) <= 0
 C2(2,5): x(2,5) - 120 z(2,5) <= 0
 C2(3,0): x(3,0) - 120 z(3,0) + w(3,0) + w(3,1) + w(3,2) + w(3,3) + w(3,4)
   + w(3,5) <= 0
 C2(3,1): x(3,1) - 120 z(3,1) <= 0
 C2(3,2): x(3,2) - 120 z(3,2) <= 0
 C2(3,3): x(3,3) - 120 z(3,3) <= 0
 C2(3,4): x(3,4) - 120 z(3,4) <= 0
 C2(3,5): x(3,5) - 120 z(3,5) <= 0
 C2(4,0): x(4,0) - 120 z(4,0) + w(4,0) + w(4,1) + w(4,2) + w(4,3) + w(4,4)
   + w(4,5) <= 0
 C2(4,1): x(4,1) - 120 z(4,1) <= 0
 C2(4,2): x(4,2) - 120 z(4,2) <= 0
 C2(4,3): x(4,3) - 120 z(4,3) <= 0
 C2(4,4): x(4,4) - 120 z(4,4) <= 0
 C2(4,5): x(4,5) - 120 z(4,5) <= 0
 C2(5,0): x(5,0) - 120 z(5,0) + w(5,0) + w(5,1) + w(5,2) + w(5,3) + w(5,4)
   + w(5,5) <= 0
 C2(5,1): x(5,1) - 120 z(5,1) <= 0
 C2(5,2): x(5,2) - 120 z(5,2) <= 0
 C2(5,3): x(5,3) - 120 z(5,3) <= 0
 C2(5,4): x(5,4) - 120 z(5,4) <= 0
 C2(5,5): x(5,5) - 120 z(5,5) <= 0
 C3(0): z(0,1) + z(0,2) + z(0,3) + z(0,4) + z(0,5) - z(1,0) - z(2,0)
   - z(3,0) - z(4,0) - z(5,0) = 0
 C3(1): - z(0,1) + z(1,0) + z(1,2) + z(1,3) + z(1,4) + z(1,5) - z(2,1)
   - z(3,1) - z(4,1) - z(5,1) = 0
 C3(2): - z(0,2) - z(1,2) + z(2,0) + z(2,1) + z(2,3) + z(2,4) + z(2,5)
   - z(3,2) - z(4,2) - z(5,2) = 0
 C3(3): - z(0,3) - z(1,3) - z(2,3) + z(3,0) + z(3,1) + z(3,2) + z(3,4)
   + z(3,5) - z(4,3) - z(5,3) = 0
 C3(4): - z(0,4) - z(1,4) - z(2,4) - z(3,4) + z(4,0) + z(4,1) + z(4,2)
   + z(4,3) + z(4,5) - z(5,4) = 0
 C3(5): - z(0,5) - z(1,5) - z(2,5) - z(3,5) - z(4,5) + z(5,0) + z(5,1)
   + z(5,2) + z(5,3) + z(5,4) = 0
 C4(0): 0.3333333333333333 z(0,0) + 1.974906367041198 z(0,1)
   + 2.059176029962547 z(0,2) + 1.428838951310861 z(0,3)
   + 5.440074906367041 z(0,4) + 4.70187265917603 z(0,5)
   + 1.974906367041198 z(1,0) + 0.3333333333333333 z(1,1)
   + 0.7108614232209738 z(1,2) + 1.426591760299625 z(1,3)
   + 6.838951310861423 z(1,4) + 6.150187265917602 z(1,5)
   + 2.059176029962547 z(2,0) + 0.7108614232209738 z(2,1)
   + 0.3333333333333333 z(2,2) + 1.731086142322097 z(2,3)
   + 6.705243445692884 z(2,4) + 6.042322097378277 z(2,5)
   + 1.428838951310861 z(3,0) + 1.426591760299625 z(3,1)
   + 1.731086142322097 z(3,2) + 0.3333333333333333 z(3,3)
   + 6.529962546816479 z(3,4) + 5.783895131086142 z(3,5)
   + 5.440074906367041 z(4,0) + 6.838951310861423 z(4,1)
   + 6.705243445692884 z(4,2) + 6.529962546816479 z(4,3)
   + 0.3333333333333333 z(4,4) + 1.109737827715356 z(4,5)
   + 4.70187265917603 z(5,0) + 6.150187265917602 z(5,1)
   + 6.042322097378277 z(5,2) + 5.783895131086142 z(5,3)
   + 1.109737827715356 z(5,4) + 0.3333333333333333 z(5,5) <= 364
Bounds
Generals
 x(0,0) z(0,0) w(0,0) x(0,1) z(0,1) w(0,1) x(0,2) z(0,2) w(0,2) x(0,3)
 z(0,3) w(0,3) x(0,4) z(0,4) w(0,4) x(0,5) z(0,5) w(0,5) x(1,0) z(1,0)
 w(1,0) x(1,1) z(1,1) w(1,1) x(1,2) z(1,2) w(1,2) x(1,3) z(1,3) w(1,3)
 x(1,4) z(1,4) w(1,4) x(1,5) z(1,5) w(1,5) x(2,0) z(2,0) w(2,0) x(2,1)
 z(2,1) w(2,1) x(2,2) z(2,2) w(2,2) x(2,3) z(2,3) w(2,3) x(2,4) z(2,4)
 w(2,4) x(2,5) z(2,5) w(2,5) x(3,0) z(3,0) w(3,0) x(3,1) z(3,1) w(3,1)
 x(3,2) z(3,2) w(3,2) x(3,3) z(3,3) w(3,3) x(3,4) z(3,4) w(3,4) x(3,5)
 z(3,5) w(3,5) x(4,0) z(4,0) w(4,0) x(4,1) z(4,1) w(4,1) x(4,2) z(4,2)
 w(4,2) x(4,3) z(4,3) w(4,3) x(4,4) z(4,4) w(4,4) x(4,5) z(4,5) w(4,5)
 x(5,0) z(5,0) w(5,0) x(5,1) z(5,1) w(5,1) x(5,2) z(5,2) w(5,2) x(5,3)
 z(5,3) w(5,3) x(5,4) z(5,4) w(5,4) x(5,5) z(5,5) w(5,5)
End
